************************************************************************
file with basedata            : md343_.bas
initial value random generator: 1617227835
************************************************************************
projects                      :  1
jobs (incl. supersource/sink ):  22
horizon                       :  168
RESOURCES
  - renewable                 :  2   R
  - nonrenewable              :  2   N
  - doubly constrained        :  0   D
************************************************************************
PROJECT INFORMATION:
pronr.  #jobs rel.date duedate tardcost  MPM-Time
    1     20      0       25        6       25
************************************************************************
PRECEDENCE RELATIONS:
jobnr.    #modes  #successors   successors
   1        1          3           2   3   4
   2        3          3           6  11  15
   3        3          3           6   7  10
   4        3          3           5   7  15
   5        3          3          11  13  17
   6        3          2           8   9
   7        3          3           8   9  13
   8        3          3          16  18  19
   9        3          1          14
  10        3          1          17
  11        3          2          12  20
  12        3          2          18  19
  13        3          1          16
  14        3          3          17  19  21
  15        3          1          18
  16        3          1          20
  17        3          1          20
  18        3          1          21
  19        3          1          22
  20        3          1          22
  21        3          1          22
  22        1          0        
************************************************************************
REQUESTS/DURATIONS:
jobnr. mode duration  R 1  R 2  N 1  N 2
------------------------------------------------------------------------
  1      1     0       0    0    0    0
  2      1     4       6    3    0    2
         2     5       6    3    8    0
         3     8       5    2    8    0
  3      1     5       4    6    0    4
         2     7       4    5    0    3
         3     9       4    5    5    0
  4      1     1       6    9    0    7
         2     4       6    8    0    4
         3     9       4    4    0    3
  5      1     1       3   10    0    4
         2     7       3    8    0    1
         3     8       2    7   10    0
  6      1     2       6    7    0    5
         2     4       5    5    8    0
         3    10       4    4    7    0
  7      1     3       6    9    8    0
         2     7       5    7    0    8
         3    10       4    7    0    3
  8      1     6       3    7   10    0
         2     8       1    6   10    0
         3     8       2    6    9    0
  9      1     5       7    9    0    3
         2     6       6    7    8    0
         3     9       6    6    8    0
 10      1     2       8    1   10    0
         2     2      10    1    0    4
         3     5       7    1    0    3
 11      1     2       5    6    7    0
         2     2       5    6    0    9
         3    10       4    5    0    4
 12      1     2       7    9    2    0
         2     2       7    9    0    7
         3     8       7    8    2    0
 13      1     1       9    7    0   10
         2     2       8    6    6    0
         3     6       7    4    0    8
 14      1     1       7    5    0    6
         2     3       6    5    0    5
         3     9       5    5    0    2
 15      1     4       9    6    0    9
         2     8       9    4    0    6
         3    10       8    4    1    0
 16      1     8       6    7    4    0
         2     8       5    4    0    6
         3     8       8    6    5    0
 17      1     1       6    8    4    0
         2     2       5    5    0    4
         3     3       3    5    0    2
 18      1     3       9    8    7    0
         2     4       9    8    5    0
         3    10       7    8    0    4
 19      1     6       3    7    5    0
         2     6       4    7    0    9
         3    10       3    5    0    4
 20      1     3       8    5    0    3
         2     7       8    4    6    0
         3    10       4    4    0    3
 21      1     2       7    4    0    5
         2     3       7    4    3    0
         3     8       5    3    3    0
 22      1     0       0    0    0    0
************************************************************************
RESOURCEAVAILABILITIES:
  R 1  R 2  N 1  N 2
   31   26   87   83
************************************************************************
MAXIMAL LAGS:
from  to  type  delay
    1   12   ES      0
    1    2   ES      0
    2   12   ES      0
    1    3   ES      0
    3   12   ES      0
    1    4   ES      0
    4   12   ES      0
    1    5   ES      0
    5   12   ES      0
    1    6   ES      0
    6   12   ES      0
    1    7   ES      0
    7   12   ES      0
    1    8   ES      0
    8   12   ES      0
    1    9   ES      0
    9   12   ES      0
    1   10   ES      0
   10   12   ES      0
    1   11   ES      0
   11   12   ES      0
    1   12   ES      0
    2    6   SS     -1
    2    6   SE    -10
    2    6   ES     -2
    2    6   EE     -2
    2   11   SS     -5
    2   11   SE      9
    2   11   ES     -6
    2   11   EE     -6
    2   15   SS     -3
    2   15   SE     -7
    2   15   ES      1
    2   15   EE     -4
    3    6   SS     -5
    3    6   SE     -6
    3    6   ES     12
    3    6   EE     -1
    3    7   SS    -12
    3    7   SE     -8
    3    7   ES      2
    3    7   EE     -9
    3   10   SS      0
    3   10   SE    -12
    3   10   ES      2
    3   10   EE     11
    4    5   SS     11
    4    5   SE     -6
    5    4   SE      0
    4    5   ES      0
    4    5   EE    -11
    4    7   SS      2
    4    7   SE      2
    4    7   ES      0
    4    7   EE     -6
    4   15   SS     -6
    4   15   SE     12
    4   15   ES      0
    4   15   EE      6
    5   11   SS     -9
    5   11   SE    -10
    5   11   ES     -7
    5   11   EE      4
    5   13   SS      6
    5   13   SE     11
    5   13   ES      4
    5   13   EE     -9
    5   17   SS     -7
    5   17   SE     12
    5   17   ES     -6
    5   17   EE     -9
    6    8   SS      3
    6    8   SE     11
    6    8   ES      7
    6    8   EE     -1
    6    9   SS     11
    6    9   SE     -2
    6    9   ES      1
    6    9   EE     -6
    7    8   SS     -6
    7    8   SE    -10
    7    8   ES      4
    7    8   EE     -1
    7    9   SS      3
    7    9   SE     -4
    7    9   ES      4
    7    9   EE     -9
    7   13   SS      2
    7   13   SE    -12
    7   13   ES    -12
    7   13   EE      0
    8   16   SS      1
    8   16   SE      0
    8   16   ES     -9
    8   16   EE     -1
    8   18   SS     -1
    8   18   SE     -3
    8   18   ES    -10
    8   18   EE      1
    8   19   SS      8
    8   19   SE     -3
    8   19   ES     -5
    8   19   EE     10
    9   14   SS    -10
    9   14   SE      8
    9   14   ES      8
    9   14   EE      0
   10   17   SS      3
   10   17   SE    -12
   10   17   ES     -4
   10   17   EE     11
   11   20   SS      8
   11   20   SE     -2
   11   20   ES    -11
   11   20   EE     -8
   12   18   SS     -5
   12   18   SE     -7
   12   18   ES      6
   12   18   EE    -12
   12   19   SS     -8
   12   19   SE      4
   12   19   ES     -8
   12   19   EE     -8
   13   16   SS     10
   13   16   SE      3
   13   16   ES     12
   13   16   EE    -11
   14   17   SS    -11
   14   17   SE      7
   14   17   ES     -6
   14   17   EE     11
   14   19   SS      9
   14   19   SE     -3
   14   19   ES     -1
   14   19   EE      7
   14   21   SS      1
   14   21   SE     -7
   14   21   ES      1
   14   21   EE     -7
   15   18   SS     -7
   15   18   SE      4
   15   18   ES     -8
   15   18   EE     11
   16   20   SS      9
   16   20   SE     -7
   16   20   ES     -1
   16   20   EE     -9
   17   20   SS     -7
   17   20   SE    -12
   17   20   ES      3
   17   20   EE     -6
   18   21   SS     -3
   18   21   SE      0
   18   21   ES      8
   18   21   EE     -1
   19   22   SS     -4
   19   22   SE      7
   19   22   ES     -2
   19   22   EE    -12
   20   22   SS    -12
   20   22   SE     -2
   20   22   ES    -12
   20   22   EE      3
   21   22   SS    -11
   21   22   SE     11
   21   22   ES     -8
   21   22   EE      1
************************************************************************
